fuel_planner/utils/lkh_tsp_solver/resource/single.tsp
NAME : single
TYPE : ATSP
DIMENSION : 8
EDGE_WEIGHT_TYPE : EXPLICIT
EDGE_WEIGHT_FORMAT : FULL_MATRIX
EDGE_WEIGHT_SECTION
0 1549 1515 1941 1662 1440 926 519 
0 0 141 285 339 644 773 1267 
0 141 0 356 376 617 693 1207 
0 285 356 0 526 903 1049 1587 
0 339 376 526 0 425 774 1325 
0 644 617 903 425 0 505 1129 
0 773 693 1049 774 505 0 556 
0 1267 1207 1587 1325 1129 556 0 
EOF