fuel_planner/utils/lkh_tsp_solver/resource/single.txt
NAME : single.4387.tour
COMMENT : Length = 4387
COMMENT : Found by LKH [Keld Helsgaun] Sat Feb 15 17:16:01 2025
TYPE : TOUR
DIMENSION : 7
TOUR_SECTION
1
4
3
7
2
5
6
-1
EOF
